
--- Job small.gms Start 09/08/22 11:09:12 39.2.0 e0c5072f WEX-WEI x86 64bit/MS Windows
--- Applying:
    C:\GAMS\39\gmsprmNT.txt
--- GAMS Parameters defined
    Input C:\Users\tawfiq\Desktop\gams\others\small.gms
    PageSize 0
    ScrDir C:\Users\tawfiq\Desktop\gams\others\225a\
    SysDir C:\GAMS\39\
    LogOption 3
    ErrMsg 1
    ErrorLog 99
    IDE 1
    LstTitleLeftAligned 1
Licensee: GAMS Demo license for TAWFIQ HAFIZI            G220605|0002CO-GEN
          Military Institute, Bangladesh                           DL068940
          C:\Users\tawfiq\Documents\GAMS\gamslice.txt
          tawfiqhasan58@gmail.com, TAWFIQ HAFIZI                           
          Demo license for demonstration and instructional purposes only
Processor information: 1 socket(s), 2 core(s), and 4 thread(s) available
GAMS 39.2.0   Copyright (C) 1987-2022 GAMS Development. All rights reserved
--- Starting compilation
--- small.gms(397) 3 Mb
--- Starting execution: elapsed 0:00:00.016
--- Generating MIP model supplychainmodel
--- small.gms(397) 4 Mb
---   183 rows  267 columns  591 non-zeroes
---   58 discrete-columns
--- Range statistics (absolute non-zero finite values)
--- RHS       [min, max] : [ 8.000E+00, 2.503E+05] - Zero values observed as well
--- Bound     [min, max] : [ 1.000E+00, 1.000E+00] - Zero values observed as well
--- Matrix    [min, max] : [ 1.000E+00, 1.000E+11]
--- Executing CPLEX (Solvelink=2): elapsed 0:00:00.031

IBM ILOG CPLEX   39.2.0 e0c5072f Jun 2, 2022           WEI x86 64bit/MS Window

--- *** This solver runs with a demo license. No commercial use.
--- GMO setup time: 0.00s
--- Space for names approximately 0.02 Mb
--- Use option 'names no' to turn use of names off
--- GMO memory 0.55 Mb (peak 0.55 Mb)
--- Dictionary memory 0.00 Mb
--- Cplex 22.1.0.0 link memory 0.01 Mb (peak 0.04 Mb)
--- Starting Cplex

Version identifier: 22.1.0.0 | 2022-03-09 | 1a383f8ce
CPXPARAM_Advance                                 0
CPXPARAM_Threads                                 1
CPXPARAM_MIP_Display                             4
CPXPARAM_MIP_Pool_Capacity                       0
CPXPARAM_MIP_Tolerances_AbsMIPGap                0
Generic callback                                 0x50
Tried aggregator 2 times.
MIP Presolve eliminated 121 rows and 173 columns.
MIP Presolve modified 30 coefficients.
Aggregator did 18 substitutions.
Reduced MIP has 43 rows, 76 columns, and 194 nonzeros.
Reduced MIP has 0 binaries, 0 generals, 0 SOSs, and 0 indicators.
Presolve time = 0.00 sec. (0.35 ticks)
Tried aggregator 1 time.
Detecting symmetries...
MIP Presolve eliminated 10 rows and 14 columns.
Reduced MIP has 33 rows, 62 columns, and 138 nonzeros.
Reduced MIP has 0 binaries, 0 generals, 0 SOSs, and 0 indicators.
Presolve time = 0.00 sec. (0.12 ticks)
MIP emphasis: balance optimality and feasibility.
MIP search method: dynamic search.
Parallel mode: none, using 1 thread.
Initializing dual steep norms . . .
Root relaxation solution time = 0.00 sec. (0.02 ticks)

        Nodes                                         Cuts/
   Node  Left     Objective  IInf  Best Integer    Best Bound    ItCnt     Gap

*     0     0      integral     0    12160.0000    12160.0000        0    0.00%
Elapsed time = 0.00 sec. (0.56 ticks, tree = 0.00 MB)
Found incumbent of value 12160.000000 after 0.00 sec. (0.56 ticks)

Root node processing (before b&c):
  Real time             =    0.00 sec. (0.57 ticks)
Sequential b&c:
  Real time             =    0.00 sec. (0.00 ticks)
                          ------------
Total (root+branch&cut) =    0.00 sec. (0.57 ticks)

--- MIP status (101): integer optimal solution.
--- Cplex Time: 0.00sec (det. 0.57 ticks)

--- Fixing integer variables and solving final LP...

Version identifier: 22.1.0.0 | 2022-03-09 | 1a383f8ce
CPXPARAM_Advance                                 2
CPXPARAM_Threads                                 1
CPXPARAM_MIP_Display                             4
CPXPARAM_MIP_Pool_Capacity                       0
CPXPARAM_MIP_Tolerances_AbsMIPGap                0
Tried aggregator 1 time.
LP Presolve eliminated 94 rows and 141 columns.
Aggregator did 14 substitutions.
Reduced LP has 74 rows, 112 columns, and 302 nonzeros.
Presolve time = 0.00 sec. (0.26 ticks)
Initializing dual steep norms . . .

Iteration log . . .
Iteration:     1   Dual objective     =         12160.000000

--- Fixed MIP status (1): optimal.
--- Cplex Time: 0.00sec (det. 0.40 ticks)


Proven optimal solution
MIP Solution:        12160.000000    (0 iterations, 0 nodes)
Final Solve:         12160.000000    (7 iterations)

Best possible:       12160.000000
Absolute gap:            0.000000
Relative gap:            0.000000

--- Reading solution for model supplychainmodel
*** Status: Normal completion
--- Job small.gms Stop 09/08/22 11:09:12 elapsed 0:00:00.078
